NAME : CMT13
TYPE : CVRP
COMMENT : 1541.14
DIMENSION : 121
VEHICLES : 11
CAPACITY : 200
DISTANCE : 720.00000
SERVICE_TIME : 50
EDGE_WEIGHT_TYPE : EXACT_2D
NODE_COORD_SECTION
1 25.00000 1.00000
2 25.00000 3.00000
3 31.00000 5.00000
4 32.00000 5.00000
5 31.00000 7.00000
6 32.00000 9.00000
7 34.00000 9.00000
8 46.00000 9.00000
9 35.00000 7.00000
10 34.00000 6.00000
11 35.00000 5.00000
12 47.00000 6.00000
13 40.00000 5.00000
14 39.00000 3.00000
15 36.00000 3.00000
16 73.00000 6.00000
17 73.00000 8.00000
18 24.00000 36.00000
19 76.00000 6.00000
20 76.00000 10.00000
21 76.00000 13.00000
22 78.00000 3.00000
23 78.00000 9.00000
24 79.00000 3.00000
25 79.00000 5.00000
26 79.00000 11.00000
27 82.00000 3.00000
28 82.00000 7.00000
29 90.00000 15.00000
30 84.00000 3.00000
31 84.00000 5.00000
32 84.00000 9.00000
33 85.00000 1.00000
34 87.00000 5.00000
35 85.00000 8.00000
36 87.00000 7.00000
37 86.00000 41.00000
38 86.00000 44.00000
39 86.00000 46.00000
40 85.00000 55.00000
41 89.00000 43.00000
42 89.00000 46.00000
43 89.00000 52.00000
44 92.00000 42.00000
45 92.00000 52.00000
46 94.00000 42.00000
47 94.00000 44.00000
48 94.00000 48.00000
49 96.00000 42.00000
50 99.00000 46.00000
51 99.00000 50.00000
52 83.00000 80.00000
53 83.00000 83.00000
54 85.00000 81.00000
55 85.00000 85.00000
56 85.00000 89.00000
57 87.00000 80.00000
58 87.00000 86.00000
59 90.00000 77.00000
60 90.00000 88.00000
61 93.00000 82.00000
62 93.00000 84.00000
63 93.00000 89.00000
64 94.00000 86.00000
65 95.00000 80.00000
66 99.00000 89.00000
67 37.00000 83.00000
68 50.00000 80.00000
69 35.00000 85.00000
70 35.00000 87.00000
71 44.00000 86.00000
72 46.00000 89.00000
73 46.00000 83.00000
74 46.00000 87.00000
75 46.00000 89.00000
76 48.00000 83.00000
77 50.00000 85.00000
78 50.00000 88.00000
79 54.00000 86.00000
80 54.00000 90.00000
81 10.00000 35.00000
82 10.00000 40.00000
83 18.00000 30.00000
84 17.00000 35.00000
85 16.00000 38.00000
86 14.00000 40.00000
87 15.00000 42.00000
88 11.00000 42.00000
89 18.00000 40.00000
90 21.00000 39.00000
91 20.00000 40.00000
92 18.00000 41.00000
93 20.00000 44.00000
94 22.00000 44.00000
95 16.00000 45.00000
96 20.00000 45.00000
97 25.00000 45.00000
98 30.00000 55.00000
99 20.00000 50.00000
100 22.00000 51.00000
101 18.00000 49.00000
102 16.00000 48.00000
103 20.00000 55.00000
104 18.00000 53.00000
105 14.00000 50.00000
106 15.00000 51.00000
107 16.00000 54.00000
108 28.00000 33.00000
109 33.00000 38.00000
110 30.00000 50.00000
111 13.00000 40.00000
112 15.00000 36.00000
113 18.00000 31.00000
114 25.00000 37.00000
115 30.00000 46.00000
116 25.00000 52.00000
117 16.00000 33.00000
118 25.00000 35.00000
119 5.00000 40.00000
120 5.00000 50.00000
121 10.00000 45.00000
DEMAND_SECTION
1 25
2 7
3 13
4 6
5 14
6 5
7 11
8 19
9 5
10 15
11 15
12 17
13 13
14 12
15 18
16 13
17 18
18 12
19 17
20 4
21 7
22 12
23 13
24 8
25 16
26 15
27 6
28 5
29 9
30 11
31 10
32 3
33 7
34 2
35 4
36 4
37 18
38 14
39 12
40 17
41 20
42 14
43 16
44 10
45 9
46 11
47 7
48 13
49 5
50 4
51 21
52 13
53 11
54 12
55 14
56 10
57 8
58 16
59 19
60 5
61 17
62 7
63 16
64 14
65 17
66 13
67 17
68 13
69 14
70 16
71 7
72 13
73 9
74 11
75 35
76 5
77 28
78 7
79 3
80 10
81 7
82 12
83 11
84 10
85 8
86 11
87 21
88 4
89 15
90 16
91 4
92 16
93 7
94 10
95 9
96 11
97 17
98 12
99 11
100 7
101 9
102 11
103 12
104 7
105 8
106 6
107 5
108 12
109 13
110 7
111 7
112 8
113 11
114 13
115 11
116 10
117 7
118 4
119 20
120 13
121 0
DEPOT_SECTION
121
-1
EOF
